c turning on binary mode checking
c parsing input formula with 202048 variables and 780980 clauses
c finished parsing, read 2479429 bytes from proof file
c detected empty clause; start verification via backward checking
c 3314 of 780980 clauses in core                            
c 1072 of 99258 lemmas in core using 19575 resolution steps
c 0 RAT lemmas in core; 59 redundant literals in core lemmas
s VERIFIED
c verification time: 0.922 seconds
